NAME : portcgen-17-25
COMMENT : portcgen N=17, seed=25
TYPE : TSP
DIMENSION : 17
EDGE_WEIGHT_TYPE : EUC_2D
NODE_COORD_SECTION
1 -209110 448575
2 -329016 -386046
3 -29042 -341128
4 -240392 11465
5 82844 -9276
6 -19470 129142
7 -163743 -234257
8 129745 -110917
9 304039 227356
10 69009 -109523
11 776188 45143
12 -410654 -408315
13 94142 127498
14 23671 -131413
15 -259647 -197117
16 145521 263673
17 52672 -284792
